\ENCODING=ISO-8859-1
\Problem name: ilog.cplex

Minimize
 obj: 1000000 z_0 + 1000000 z_1 + 1000000 z_2 + 1000000 z_3 + 1000000 z_4
      + 1000000 z_5 + 2000 z_6 + 2000 z_7 + 2000 z_8 + 2000 z_0 + 2000 z_1
      + 2000 z_2
Subject To
 c1:  x0,4,0 - x5,0,0  = 30
 c2:  - x3,1,0 + x1,5,0  = 0
 c3:  - x4,2,0 + x2,3,0  = 0
 c4:  x3,1,0 - x2,3,0  = 0
 c5:  - x0,4,0 + x4,2,0  = 0
 c6:  - x1,5,0 + x5,0,0  = -30
 c7:  x0,4,0 - 50 z_0 - 50 z_6 - 50 z_1 <= 0
 c8:  x3,1,0 - 50 z_1 - 50 z_8 - 50 z_0 <= 0
 c9:  x1,5,0 - 50 z_2 - 50 z_7 - 50 z_2 <= 0
 c10: x4,2,0 - 50 z_3 - 50 z_6 - 50 z_1 <= 0
 c11: x2,3,0 - 50 z_4 - 50 z_8 - 50 z_0 <= 0
 c12: x5,0,0 - 50 z_5 - 50 z_7 - 50 z_2 <= 0
 c13: q0,0 + z_6 + z_7 + z_8  = 1
 c14: q0,1 + z_0 + z_1 + z_2  = 1
Bounds
 0 <= q0,0 <= 1
 0 <= q0,1 <= 1
End
